Instance Name : r205
Date : 2022-07-18
Solution
Route 1 : 21 72 39 67 23 75 22 41 73 40 26 53
Route 2 : 28 12 29 76 33 71 65 9 81 51 30 50 3 79 78 34 35 66 20 32 10 70 1
Route 3 : 27 52 69 31 88 62 11 63 90 64 49 19 7 48 60 89
Route 4 : 2 15 42 14 44 38 86 16 61 85 99 6 94 97 87 43 57 74 56 4 25 55 54 24 80 68 77
Route 5 : 95 92 98 59 5 83 45 82 47 36 46 8 18 84 17 91 100 37 93 96 13 58
